Solution in this episode: [459, 358, 493, 154, 221, 273, 442, 188, 17, 86, 136, 426, 374, 477, 51, 307, 255, 120, 34, 290, 408, 392, 323, 239, 68, 103, 340, 1, 204, 171, 462, 360, 495, 155, 469, 472, 223, 473, 276, 502, 445, 189, 367, 19, 87, 370, 277, 163, 139, 428, 372, 166, 448, 376, 478, 505, 280, 229, 509, 54, 309, 169, 146, 285, 148, 451, 259, 121, 194, 232, 36, 291, 430, 237, 151, 453, 287, 411, 393, 27, 262, 196, 325, 241, 30, 435, 61, 31, 458, 70, 104, 94, 343, 2, 316, 437, 198, 207, 173, 380, 265, 203, 439, 417, 64, 484, 67, 384, 319, 247, 98, 488, 322, 124, 266, 491, 271, 347, 99, 387, 129, 43, 421, 130, 210, 349, 388, 134, 299, 180, 213, 302, 397, 250, 424, 253, 330, 46, 183, 305, 400, 352, 76, 50, 81, 333, 334, 337, 186, 112, 115, 354, 217, 83, 5, 116, 404, 10, 11, 15, 220, 405]
